LAMMPS file. CGCMM style. atom_style generated

8 atoms
4 atom types

-5.000000    5.000000    xlo xhi
-5.000000    5.000000    ylo yhi
-5.000000    5.000000    zlo zhi

Masses

1   12.010700  #  C
2   1.007940  #  H
3   15.994915  #  O
4   14.003074  #  N

Atoms

1  1  1  -0.337846  -1.449818  0.380554  0.671981  #  C
2  1  1  0.276939  -0.178943  -0.020095  0.750281  #  C
3  1  1  -0.176622  0.660426  -0.164489  -0.394598  #  C
4  1  2  0.152994  -2.053006  0.477261  1.565934  #  H
5  1  2  0.165836  -1.913585  0.619197  -0.277260  #  H
6  1  2  0.185518  0.279859  -0.257412  1.704214  #  H
7  1  4  -0.266820  1.356677  -0.287838  -1.308408  #  N
8  2  1  0.000000  4.000000  -2.000000  -4.000000  #  C
